[VALIDATOR STDOUT]
Checking plan: /home/jfan5/Safety-gen/runs/benchmark/optic/grid_20260129_163214/grid/optic_results/grid_x10_y10_sh3_k6_l6_s10001.plan
Plan executed successfully - checking goal
Plan valid
Final value: 115 

Successful plans:
Value: 115
 /home/jfan5/Safety-gen/runs/benchmark/optic/grid_20260129_163214/grid/optic_results/grid_x10_y10_sh3_k6_l6_s10001.plan 115
